$rem
   JOBTYPE Opt
   METHOD riMP2
   BASIS cc-pVQZ
   AUX_BASIS rimp2-cc-pVQZ
$end

$molecule
0 1
 C         0.0668934984   -0.2601406978    0.0995316474
 S         0.1088847146   -0.4249498585    1.7181104513
 S        -0.2961921756    1.1527048294   -0.8581306517
 H         0.2832640666   -1.1005152464   -0.5609093797
 H        -0.5129131039    1.9926909733    0.1781279327
$end
